results/real/sos1/mar_5_366.out
Version identifier: 22.1.1.0 | 2022-11-28 | 9160aff4d
CPXPARAM_Threads                                 1
CPXPARAM_MIP_Strategy_VariableSelect             3
CPXPARAM_TimeLimit                               599.99998226000002
1 of 1 MIP starts provided solutions.
MIP start 'm1' defined initial solution with objective 131.0000.
Tried aggregator 1 time.
MIP Presolve eliminated 382 rows and 1464 columns.
MIP Presolve modified 27 coefficients.
Reduced MIP has 1827 rows, 3294 columns, and 88085 nonzeros.
Reduced MIP has 3294 binaries, 0 generals, 0 SOSs, and 0 indicators.
Presolve time = 0.12 sec. (141.09 ticks)
Probing time = 0.02 sec. (13.60 ticks)
Tried aggregator 1 time.
Detecting symmetries...
MIP Presolve modified 7 coefficients.
Reduced MIP has 1827 rows, 3294 columns, and 88192 nonzeros.
Reduced MIP has 3294 binaries, 0 generals, 0 SOSs, and 0 indicators.
Presolve time = 0.11 sec. (130.15 ticks)
Probing time = 0.02 sec. (13.60 ticks)
Clique table members: 1092.
MIP emphasis: balance optimality and feasibility.
MIP search method: dynamic search.
Parallel mode: none, using 1 thread.
Root relaxation solution time = 0.05 sec. (49.73 ticks)

        Nodes                                         Cuts/
   Node  Left     Objective  IInf  Best Integer    Best Bound    ItCnt     Gap

*     0+    0                          131.0000    67161.0000              --- 
      0     0      366.0000    81      131.0000      366.0000      726  179.39%
*     0+    0                          366.0000      366.0000             0.00%
      0     0        cutoff            366.0000      366.0000      726    0.00%
Elapsed time = 0.49 sec. (476.82 ticks, tree = 0.01 MB, solutions = 2)

Root node processing (before b&c):
  Real time             =    0.49 sec. (477.00 ticks)
Sequential b&c:
  Real time             =    0.00 sec. (0.00 ticks)
                          ------------
Total (root+branch&cut) =    0.49 sec. (477.00 ticks)
Primal:	366
Dual:	366
Status:	Optimal
Time:	0.51
Sequence:
	7
	10
	10
	4
	5
	9
	7
	9
	5
	9
	5
	5
	9
	7
	5
	9
	4
	5
	9
	7
	9
	9
	9
	0
	9
	5
	0
	7
	9
	5
	5
	9
	5
	5
	9
	5
	5
	9
	7
	5
	9
	5
	5
	9
	5
	7
	9
	5
	5
	0
	9
	5
	7
	9
	5
	5
	9
	5
	5
	9
	7
	9
	5
	9
	9
	4
	7
	1
	4
	9
	4
	0
	9
	4
	7
	9
	9
	9
	9
	5
	9
	7
	5
	9
	5
	0
	5
	9
	5
	7
	9
	5
	9
	4
	4
	1
	1
	0
	4
	7
	0
	4
	4
	0
	4
	10
	4
	10
	7
	4
	2
	4
	9
	5
	7
	10
	4
	5
	2
	4
	4
	2
	7
	5
	10
	4
	4
	1
	4
	4
	1
	4
	7
	1
	4
	1
	4
	9
	7
	2
	9
	9
	9
	5
	7
	9
	5
	9
	5
	9
	7
	5
	9
	5
	4
	0
	7
	9
	0
	9
	5
	9
	7
	4
	1
	5
	4
	9
	7
	5
	2
	5
	5
	1
	9
	7
	5
	0
	9
	9
	5
	5
	0
	9
	9
	9
	7
	9
	0
	10
	1
	9
	0
	7
	9
	4
	9
	9
	9
	7
	0
	10
	9
	5
	1
	0
	9
	7
	10
	0
	9
	9
	9
	7
	4
	9
	4
	4
	1
	7
	2
	9
	9
	2
	9
	7
	0
	4
	9
	9
	0
	7
	1
	2
	5
	4
	0
	9
	7
	0
	4
	5
	1
	0
	4
	10
	7
	9
	5
	9
	5
	10
	2
	7
	5
	1
	4
	0
	4
	4
	0
	7
	4
	1
	1
	1
	9
	7
	9
	0
	9
	9
	0
	9
	9
	7
	0
	9
	1
	0
	1
	9
	7
	9
	5
	5
	9
	5
	5
	9
	0
	5
	7
	9
	9
	5
	9
	5
	5
	9
	7
	9
	5
	5
	9
	9
	7
	9
	9
	4
	9
	9
	10
	7
	9
	9
	9
	9
	5
	7
	9
	9
	9
	9
	4
	7
	9
	4
	9
	4
	0
	9
	9
	0
	7
	9
	5
	5
	9
	4
	7
	9
	9
	9
	5
	4
	9
	7
	9
	9
	9
	9
	0
	7
	5
	9
	9
	5
	2
	7
	1
	1
	4
	9
	5
	7
